
Log started (V11.0.0) Thu May 15 19:29:20 2008

Tried aggregator 1 time.
Reduced MIP has 120 rows, 2001 columns, and 4020 nonzeros.
Presolve time =    0.02 sec.
Clique table members: 100.
MIP emphasis: balance optimality and feasibility.
MIP search method: dynamic search.
Parallel mode: none, using 1 thread.
Root relaxation solution time =    0.06 sec.

        Nodes                                         Cuts/
   Node  Left     Objective  IInf  Best Integer     Best Node    ItCnt     Gap

*     0+    0                       104802.0000     5024.6949      255   95.21%
*     0+    0                         5043.0000     5024.6949      255    0.36%
      0     0     5025.0648    40     5043.0000      Fract: 7      292    0.36%
      0     0     5027.5432    49     5043.0000       Cuts: 7      350    0.31%
      0     0     5027.5717    54     5043.0000       Cuts: 4      359    0.31%
      0     0     5027.6556    56     5043.0000       Cuts: 4      368    0.30%
*     0+    0                         5041.0000     5027.6556      368    0.26%
      0     2     5028.0000    53     5041.0000     5027.6556      368    0.26%
    100    72     5034.8252    37     5041.0000     5028.0000     2346    0.26%
    200   123    infeasible           5041.0000     5028.0000     4306    0.26%
    300   192     5033.0000    31     5041.0000     5028.0000     5547    0.26%
    400   236     5038.0000    36     5041.0000     5028.0000     7655    0.26%
    500   266        cutoff           5041.0000     5030.0000    10461    0.22%
    600   258     5035.0000    36     5041.0000     5030.0000    12346    0.22%
    700   264     5030.0000    38     5041.0000     5030.0000    14226    0.22%
    800   256        cutoff           5041.0000     5030.0000    16066    0.22%
    900   291     5039.0000    35     5041.0000     5030.0000    17720    0.22%
   1000   371     5033.0000    42     5041.0000     5030.0000    19349    0.22%
Elapsed time =   7.78 sec. (tree size =  0.86 MB, solutions = 3)
   1100   435     5033.0000    40     5041.0000     5030.0000    21333    0.22%
   1200   515     5037.0000    30     5041.0000     5030.0000    23389    0.22%
   1300   604     5033.0000    39     5041.0000     5030.0000    24935    0.22%
   1400   681     5031.0000    46     5041.0000     5030.0000    26698    0.22%
   1500   755     5036.1966    36     5041.0000     5030.0000    29362    0.22%
   1600   805     5034.0000    41     5041.0000     5030.0000    33116    0.22%
   1700   890     5038.0000    37     5041.0000     5030.0000    35396    0.22%
   1800   960     5035.0000    36     5041.0000     5030.0000    38258    0.22%
   1900  1036     5031.0000    65     5041.0000     5030.0000    40336    0.22%
   2000  1128     5039.0000    34     5041.0000     5030.0000    42112    0.22%
Elapsed time =  12.11 sec. (tree size =  2.96 MB, solutions = 3)
   2100  1200     5036.1831    57     5041.0000     5030.0000    44589    0.22%
   2200  1279     5033.0000    36     5041.0000     5030.0000    46773    0.22%
   2300  1363     5034.0000    40     5041.0000     5030.0000    49734    0.22%
   2400  1433     5039.0000    38     5041.0000     5030.0000    51704    0.22%
   2500  1505     5030.0000    40     5041.0000     5030.0000    54032    0.22%
   2600  1598     5036.0000    47     5041.0000     5030.0000    56628    0.22%
   2700  1682     5033.0000    48     5041.0000     5030.0000    59161    0.22%
   2800  1766     5038.0000    49     5041.0000     5030.0000    61617    0.22%
   2900  1845     5035.0000    53     5041.0000     5030.0000    64748    0.22%
   3000  1926     5030.0000    57     5041.0000     5030.0000    67517    0.22%
Elapsed time =  16.95 sec. (tree size =  5.51 MB, solutions = 3)
   3100  2011     5039.0000    52     5041.0000     5030.0000    69670    0.22%
   3200  2095     5035.0000    58     5041.0000     5030.0000    72291    0.22%
   3300  2176     5033.0000    73     5041.0000     5030.0000    76128    0.22%
   3400  2263     5030.0000    76     5041.0000     5030.0000    80059    0.22%
   3500  2343     5032.0165    75     5041.0000     5030.0000    84980    0.22%
   3600  2436     5040.0000    41     5041.0000     5030.0000    87918    0.22%
   3700  2502     5040.0000    70     5041.0000     5030.0000    94869    0.22%
   3800  2591     5036.0000    46     5041.0000     5030.0000    98962    0.22%
   3900  2664     5039.0000    45     5041.0000     5030.0000   105266    0.22%
   4000  2728     5040.0000    55     5041.0000     5030.0000   111604    0.22%
Elapsed time =  26.25 sec. (tree size =  8.83 MB, solutions = 3)
   4100  2803     5032.4481    86     5041.0000     5030.0000   116719    0.22%
   4200  2886     5032.3033    67     5041.0000     5030.0000   119949    0.22%
   4300  2960        cutoff           5041.0000     5030.0000   123387    0.22%
   4400  3032        cutoff           5041.0000     5030.0000   132945    0.22%
   4500  3113     5038.0000    57     5041.0000     5030.0000   139167    0.22%
   4600  3177     5038.0000    45     5041.0000     5030.0000   147276    0.22%
   4700  3250     5036.1313    74     5041.0000     5030.0000   151690    0.22%
   4800  3327     5038.0000    60     5041.0000     5030.0000   159318    0.22%
   4900  3400     5039.0000    55     5041.0000     5030.0000   166722    0.22%
   5000  3474     5038.0000    53     5041.0000     5030.0000   180392    0.22%
Elapsed time =  43.59 sec. (tree size = 12.79 MB, solutions = 3)
   5100  3560     5037.0000    61     5041.0000     5030.0000   189410    0.22%
   5200  3633     5039.0842    54     5041.0000     5030.0000   195190    0.22%
   5300  3711     5038.0000    46     5041.0000     5030.0000   205831    0.22%
   5400  3796     5040.0000    59     5041.0000     5030.0000   211252    0.22%
*  5411+ 3033                         5040.0000     5030.0000   213809    0.20%
*  5471+ 2657                         5039.0000     5030.0000   216373    0.18%
   5500  2675     5036.0000    49     5039.0000     5030.0000   220281    0.18%
   5600  2757     5036.0000    22     5039.0000     5030.0000   229042    0.18%
   5700  2821        cutoff           5039.0000     5030.0000   239507    0.18%
   5800  2901     5038.0000    63     5039.0000     5030.0000   247363    0.18%
   5900  2966        cutoff           5039.0000     5030.0000   258457    0.18%
   6000  3046     5038.0000    37     5039.0000     5030.0000   270893    0.18%
Elapsed time =  69.47 sec. (tree size = 12.22 MB, solutions = 5)
   6100  3100     5038.0000    34     5039.0000     5030.0000   289787    0.18%
   6200  3166     5038.0000    39     5039.0000     5030.0000   305122    0.18%
   6300  3246     5038.0000    22     5039.0000     5030.0000   317707    0.18%
   6400  3329     5038.0000    48     5039.0000     5030.0000   323350    0.18%
*  6471+ 2405                         5038.0000     5030.0000   328785    0.16%
*  6471+ 2046                         5037.0000     5030.0000   328785    0.14%
   6500  2073     5036.0000    49     5037.0000     5030.0000   330591    0.14%
   6600  2147     5036.0000    42     5037.0000     5030.0000   338296    0.14%
   6700  2239     5036.0000    61     5037.0000     5030.0000   343430    0.14%
   6800  2293        cutoff           5037.0000     5030.0000   360487    0.14%
   6900  2347     5036.0000    34     5037.0000     5030.0000   371991    0.14%
   7000  2414     5036.0000    76     5037.0000     5030.0000   382554    0.14%
Elapsed time = 104.03 sec. (tree size = 10.55 MB, solutions = 7)
   7100  2470     5036.0000    52     5037.0000     5030.0000   401418    0.14%
   7200  2504     5036.0000    61     5037.0000     5030.0000   419267    0.14%
   7300  2574     5036.0000    81     5037.0000     5030.0000   430316    0.14%
   7400  2628        cutoff           5037.0000     5030.0000   444409    0.14%
*  7471+ 1427                         5036.0000     5030.0000   454793    0.12%
   7500  1410        cutoff           5036.0000     5030.2620   463091    0.11%
   7600  1340        cutoff           5036.0000     5031.0000   479872    0.10%
   7700  1252        cutoff           5036.0000     5031.0000   510976    0.10%
   7800  1177        cutoff           5036.0000     5031.8319   539343    0.08%
   7900  1077        cutoff           5036.0000     5032.0000   550719    0.08%
   8000   977        cutoff           5036.0000     5032.0000   592801    0.08%
Elapsed time = 166.47 sec. (tree size =  3.34 MB, solutions = 8)
   8100   878        cutoff           5036.0000     5033.0000   616210    0.06%
   8200   778        cutoff           5036.0000     5033.0000   634946    0.06%
   8300   678        cutoff           5036.0000     5033.0000   661494    0.06%
   8400   578        cutoff           5036.0000     5034.0000   686774    0.04%
   8500   478        cutoff           5036.0000     5034.0000   704172    0.04%
   8600   378        cutoff           5036.0000     5034.0000   722516    0.04%
   8700   280        cutoff           5036.0000     5035.0000   740355    0.02%
   8800   180        cutoff           5036.0000     5035.0000   768075    0.02%
   8900    80    infeasible           5036.0000     5035.0000   796621    0.02%

Cover cuts applied:  583
Flow cuts applied:  2
Mixed integer rounding cuts applied:  6
Gomory fractional cuts applied:  2

Solution pool: 8 solutions saved.

MIP - Integer optimal solution:  Objective = 5.0360000000e+003
Solution time =  225.24 sec.  Iterations = 828594  Nodes = 8981


Incumbent solution
Variable Name           Solution Value
Cmax                       5036.000000
X_1_1                         1.000000
X_2_17                        1.000000
X_3_6                         1.000000
X_4_9                         1.000000
X_5_15                        1.000000
X_6_20                        1.000000
X_7_3                         1.000000
X_8_18                        1.000000
X_9_17                        1.000000
X_10_19                       1.000000
X_11_7                        1.000000
X_12_18                       1.000000
X_13_13                       1.000000
X_14_4                        1.000000
X_15_14                       1.000000
X_16_11                       1.000000
X_17_2                        1.000000
X_18_11                       1.000000
X_19_17                       1.000000
X_20_1                        1.000000
X_21_10                       1.000000
X_22_5                        1.000000
X_23_3                        1.000000
X_24_10                       1.000000
X_25_10                       1.000000
X_26_14                       1.000000
X_27_9                        1.000000
X_28_19                       1.000000
X_29_14                       1.000000
X_30_20                       1.000000
X_31_19                       1.000000
X_32_3                        1.000000
X_33_17                       1.000000
X_34_6                        1.000000
X_35_13                       1.000000
X_36_15                       1.000000
X_37_15                       1.000000
X_38_5                        1.000000
X_39_7                        1.000000
X_40_8                        1.000000
X_41_1                        1.000000
X_42_15                       1.000000
X_43_20                       1.000000
X_44_11                       1.000000
X_45_12                       1.000000
X_46_6                        1.000000
X_47_18                       1.000000
X_48_9                        1.000000
X_49_16                       1.000000
X_50_1                        1.000000
X_51_9                        1.000000
X_52_15                       1.000000
X_53_10                       1.000000
X_54_4                        1.000000
X_55_2                        1.000000
X_56_7                        1.000000
X_57_9                        1.000000
X_58_5                        1.000000
X_59_11                       1.000000
X_60_7                        1.000000
X_61_6                        1.000000
X_62_4                        1.000000
X_63_12                       1.000000
X_64_20                       1.000000
X_65_11                       1.000000
X_66_12                       1.000000
X_67_2                        1.000000
X_68_10                       1.000000
X_69_8                        1.000000
X_70_8                        1.000000
X_71_16                       1.000000
X_72_14                       1.000000
X_73_16                       1.000000
X_74_20                       1.000000
X_75_5                        1.000000
X_76_1                        1.000000
X_77_16                       1.000000
X_78_8                        1.000000
X_79_17                       1.000000
X_80_4                        1.000000
X_81_5                        1.000000
X_82_19                       1.000000
X_83_3                        1.000000
X_84_14                       1.000000
X_85_13                       1.000000
X_86_2                        1.000000
X_87_18                       1.000000
X_88_12                       1.000000
X_89_18                       1.000000
X_90_8                        1.000000
X_91_13                       1.000000
X_92_7                        1.000000
X_93_19                       1.000000
X_94_16                       1.000000
X_95_13                       1.000000
X_96_3                        1.000000
X_97_12                       1.000000
X_98_4                        1.000000
X_99_6                        1.000000
X_100_2                       1.000000
All other variables in the range 1-2001 are 0.
